38356.49 0
0 5 6 7 9 10 11 14 15 16 18 17 8 572 573 571 570 569 568 19 20 21 13 12 23 22 24 25 26 27 28 29 31 30 32 33 34 35 36 37 38 39 42 41 40 557 558 559 550 551 101 102 100 99 98 96 95 97 94 89 88 77 78 87 86 85 90 93 92 91 554 553 552 556 555 46 45 44 43 47 48 49 50 84 51 52 54 53 55 56 83 82 57 58 59 81 80 79 61 60 63 62 64 76 75 74 73 119 120 121 118 106 105 104 103 547 546 545 544 543 541 542 107 108 109 110 111 112 113 114 115 116 117 122 123 71 72 65 66 67 68 70 69 124 125 126 127 128 129 130 131 132 133 134 135 136 137 138 139 140 141 151 150 149 152 148 147 146 142 143 144 145 158 157 153 165 164 154 155 156 159 160 161 162 168 163 167 166 198 199 200 201 202 204 203 208 207 206 205 209 210 211 212 213 214 215 217 216 246 247 245 244 243 240 239 238 237 236 235 234 233 232 223 224 222 221 220 218 219 225 226 189 227 228 229 230 231 533 532 531 530 529 528 527 512 511 510 509 513 514 515 516 517 520 521 522 523 526 525 524 493 492 491 490 489 488 486 487 535 534 188 187 186 190 191 192 193 194 195 196 197 184 185 183 182 179 181 180 169 171 170 172 173 174 175 176 177 178 540 538 539 537 536 484 485 483 481 482 475 476 480 479 477 478 548 549 560 561 562 563 564 565 566 567 474 473 472 494 495 471 470 469 468 467 466 465 464 496 497 518 519 498 501 502 503 504 505 506 507 508 302 301 241 242 248 249 250 251 252 254 253 255 256 257 300 299 298 265 262 258 259 260 261 263 264 266 267 270 269 268 271 272 273 274 275 290 289 288 276 277 278 279 280 281 282 287 286 285 284 283 334 335 333 336 337 338 339 340 341 343 344 345 346 364 365 342 330 331 332 291 292 293 294 295 296 297 321 320 319 317 318 305 306 304 303 307 308 309 310 311 451 312 313 316 314 315 374 375 376 377 378 379 380 381 390 389 388 391 392 393 394 395 396 371 372 373 322 323 324 325 326 327 328 329 366 367 368 369 370 398 397 407 408 406 399 400 401 402 403 404 405 409 385 387 386 382 383 384 410 411 412 356 355 353 354 357 358 359 360 361 363 362 347 348 349 350 351 352 415 416 414 413 417 418 419 420 421 422 423 424 425 426 427 428 429 431 430 432 433 434 435 436 437 438 454 439 443 444 445 442 446 447 448 449 450 441 440 453 452 499 500 461 462 463 460 459 458 457 456 455 3 2 1 4